language ESSENCE' 1.0
$ loaded file: carseqdata/csplib-instance-54
letting numcars=200
letting numclasses=25
letting numoptions=5
letting optMax=[1, 2, 1, 2, 1]
letting windowSize=[2, 3, 3, 5, 5]
letting numberPerClass=[3, 3, 26, 1, 18, 5, 4, 14, 1, 2, 3, 4, 9, 1, 3, 8, 5, 5, 35, 15, 7, 19, 2, 3, 4]
letting optionsRequired=[[0, 1, 0, 1, 1], [0, 1, 1, 0, 0], [1, 0, 0, 0, 0], [0, 0, 0, 1, 1], [1, 1, 0, 0, 0], [1, 0, 1, 1, 0], [1, 0, 0, 0, 1], [0, 0, 0, 1, 0], [0, 0, 1, 1, 1], [1, 1, 1, 0, 0], [0, 1, 1, 1, 0], [1, 0, 0, 1, 1], [1, 0, 1, 0, 0], [1, 1, 1, 1, 0], [0, 0, 1, 0, 1], [0, 0, 0, 0, 1], [1, 0, 0, 1, 0], [1, 1, 0, 1, 0], [0, 1, 0, 0, 0], [0, 1, 0, 1, 0], [0, 0, 1, 0, 0], [0, 0, 1, 0, 0], [0, 1, 1, 0, 1], [1, 1, 0, 0, 1], [0, 1, 0, 0, 1]]
